====================================================================================================================
File name: 100_10_65_15.def
Creation date: Mon Nov 24 20:40:29 CET 2014
Website: http://imopse.ii.pwr.edu.pl/
Reference:
Myszkowski P. B., Skowronski M. E., Olech L., Oslizlo K.,
Hybrid Ant Colony Optimization in solving Multi-Skill Resource-Constrained Project Scheduling Problem,
Soft Computing, DOI: DOI 10.1007/s00500-014-1455-x
====================================================================================================================
General characteristics:
Tasks: 100
Resources: 10
Precedence relations: 65
Number of skill types: 15
====================================================================================================================
ResourceID 	 Salary 	 Skills
1	 	 	63.6	 	 Q2: 1 	  Q12: 1 	  Q8: 2 	  Q5: 0 	  Q13: 2 	  Q3: 1
2	 	 	72.7	 	 Q2: 2 	  Q12: 2 	  Q8: 0 	  Q14: 1 	  Q5: 1 	  Q1: 1
3	 	 	33.0	 	 Q1: 0 	  Q10: 1 	  Q4: 0 	  Q6: 2 	  Q11: 0 	  Q12: 0
4	 	 	87.1	 	 Q10: 1 	  Q7: 1 	  Q0: 1 	  Q13: 0 	  Q1: 0 	  Q12: 0
5	 	 	62.8	 	 Q2: 0 	  Q0: 2 	  Q13: 2 	  Q12: 0 	  Q4: 2 	  Q8: 0
6	 	 	73.5	 	 Q3: 0 	  Q9: 2 	  Q13: 0 	  Q11: 2 	  Q7: 0 	  Q2: 2
7	 	 	21.5	 	 Q3: 2 	  Q0: 0 	  Q10: 0 	  Q13: 2 	  Q14: 0 	  Q1: 1
8	 	 	94.5	 	 Q10: 1 	  Q14: 0 	  Q12: 1 	  Q4: 0 	  Q6: 0 	  Q3: 1
9	 	 	54.8	 	 Q7: 1 	  Q2: 0 	  Q9: 2 	  Q13: 2 	  Q14: 0 	  Q8: 1
10	 	 	75.5	 	 Q2: 2 	  Q9: 1 	  Q4: 2 	  Q13: 1 	  Q8: 0 	  Q0: 0
====================================================================================================================
TaskID 	 Duration 	 Skill 	 Predecessor IDs
1	 	 	36	 Q10: 1
2	 	 	22	 Q7: 1
3	 	 	27	 Q1: 0
4	 	 	37	 Q1: 0
5	 	 	18	 Q2: 0
6	 	 	37	 Q6: 2
7	 	 	14	 Q9: 1
8	 	 	23	 Q2: 0
9	 	 	38	 Q14: 1
10	 	 	12	 Q13: 2
11	 	 	38	 Q14: 1
12	 	 	11	 Q10: 1
13	 	 	29	 Q0: 2
14	 	 	13	 Q3: 2	 	13
15	 	 	33	 Q8: 0
16	 	 	20	 Q8: 2
17	 	 	13	 Q13: 1
18	 	 	24	 Q7: 1
19	 	 	16	 Q2: 1
20	 	 	38	 Q2: 0
21	 	 	26	 Q12: 0	 	3
22	 	 	17	 Q12: 0
23	 	 	25	 Q12: 2
24	 	 	18	 Q4: 0
25	 	 	23	 Q8: 2
26	 	 	13	 Q10: 0
27	 	 	9	 Q4: 2
28	 	 	12	 Q8: 2	 	24
29	 	 	39	 Q0: 1	 	23
30	 	 	34	 Q12: 0	 	6
31	 	 	39	 Q8: 1
32	 	 	19	 Q7: 1
33	 	 	21	 Q1: 1
34	 	 	29	 Q4: 0
35	 	 	10	 Q2: 1
36	 	 	29	 Q2: 2	 	20
37	 	 	10	 Q0: 2
38	 	 	25	 Q0: 0
39	 	 	39	 Q9: 2
40	 	 	27	 Q11: 2
41	 	 	16	 Q14: 0
42	 	 	10	 Q11: 0
43	 	 	35	 Q5: 1	 	26
44	 	 	27	 Q1: 0	 	10
45	 	 	18	 Q5: 1
46	 	 	14	 Q1: 1
47	 	 	37	 Q3: 1	 	21	11
48	 	 	35	 Q4: 2
49	 	 	12	 Q8: 1	 	18
50	 	 	9	 Q0: 1	 	11	12
51	 	 	40	 Q2: 0
52	 	 	9	 Q1: 1
53	 	 	8	 Q6: 2
54	 	 	37	 Q0: 0
55	 	 	33	 Q3: 0	 	47	28
56	 	 	18	 Q2: 1	 	46
57	 	 	23	 Q3: 1
58	 	 	23	 Q2: 2	 	7
59	 	 	26	 Q7: 1
60	 	 	13	 Q6: 0
61	 	 	30	 Q3: 1
62	 	 	14	 Q9: 2	 	35	48
63	 	 	29	 Q0: 0	 	50	28
64	 	 	32	 Q2: 0	 	7
65	 	 	34	 Q8: 1
66	 	 	30	 Q3: 0	 	18
67	 	 	17	 Q12: 0	 	51
68	 	 	12	 Q13: 0	 	48	16
69	 	 	9	 Q5: 1	 	62
70	 	 	32	 Q14: 0
71	 	 	25	 Q11: 2	 	10	11	41	63
72	 	 	37	 Q0: 1
73	 	 	36	 Q0: 0
74	 	 	28	 Q11: 0	 	56	15
75	 	 	25	 Q2: 0	 	11	46	68
76	 	 	37	 Q1: 1
77	 	 	15	 Q11: 0	 	46	12	1
78	 	 	33	 Q0: 1	 	73	54	62
79	 	 	33	 Q3: 0	 	37
80	 	 	23	 Q3: 0	 	15	30	1	77
81	 	 	31	 Q0: 1	 	1
82	 	 	20	 Q5: 1	 	74	1
83	 	 	26	 Q7: 0	 	22
84	 	 	29	 Q10: 0	 	56
85	 	 	13	 Q13: 1
86	 	 	11	 Q12: 0
87	 	 	37	 Q9: 2	 	60
88	 	 	11	 Q8: 1	 	82
89	 	 	14	 Q1: 1	 	1	10
90	 	 	21	 Q13: 0	 	59
91	 	 	31	 Q9: 1
92	 	 	39	 Q10: 0
93	 	 	17	 Q8: 0	 	72
94	 	 	20	 Q3: 0	 	19	33
95	 	 	38	 Q2: 2	 	29
96	 	 	24	 Q12: 2	 	40
97	 	 	28	 Q2: 1	 	84
98	 	 	33	 Q10: 0
99	 	 	11	 Q1: 0
100	 	 	24	 Q9: 1	 	59	46
====================================================================================================================
